p edge 29 59
e 1 4
e 1 16
e 1 9
e 1 15
e 1 2
e 2 9
e 2 15
e 3 10
e 3 5
e 3 25
e 4 25
e 4 20
e 4 24
e 4 16
e 5 23
e 5 25
e 6 21
e 6 23
e 6 19
e 6 10
e 6 28
e 6 8
e 7 11
e 7 20
e 7 13
e 7 29
e 7 12
e 7 21
e 7 23
e 8 27
e 8 19
e 8 28
e 8 18
e 8 14
e 10 17
e 10 22
e 10 15
e 10 19
e 11 22
e 11 25
e 11 20
e 12 26
e 12 19
e 12 27
e 12 21
e 14 18
e 15 27
e 15 22
e 15 19
e 15 29
e 16 18
e 17 22
e 17 27
e 17 29
e 18 26
e 19 22
e 19 27
e 20 25
e 26 29
